# Solution for model GNN
# Objective value = 3.2671813740173423e+00
A[0,0] 1
A[0,1] 1
A[0,2] 0
A[0,3] 1
A[0,4] 0
A[0,5] 1
A[1,0] 1
A[1,1] 1
A[1,2] 1
A[1,3] 0
A[1,4] 1
A[1,5] 0
A[2,0] 0
A[2,1] 1
A[2,2] 1
A[2,3] 0
A[2,4] 0
A[2,5] 0
A[3,0] 1
A[3,1] 0
A[3,2] 0
A[3,3] 1
A[3,4] 0
A[3,5] 0
A[4,0] 0
A[4,1] 1
A[4,2] 0
A[4,3] 0
A[4,4] 1
A[4,5] 0
A[5,0] 1
A[5,1] 0
A[5,2] 0
A[5,3] 0
A[5,4] 0
A[5,5] 1
x[0,0] 1
x[0,1] 0
x[0,2] 0
x[0,3] 0
x[0,4] 0
x[0,5] 0
x[0,6] 0
x[0,7] 1
x[0,8] 0
x[0,9] 0
x[0,10] 1
x[0,11] 0
x[0,12] 0
x[0,13] 0
x[1,0] 1
x[1,1] 0
x[1,2] 0
x[1,3] 0
x[1,4] 0
x[1,5] 0
x[1,6] 0
x[1,7] 1
x[1,8] 0
x[1,9] 0
x[1,10] 1
x[1,11] 0
x[1,12] 0
x[1,13] 0
x[2,0] 0
x[2,1] 1
x[2,2] 0
x[2,3] 0
x[2,4] 0
x[2,5] 1
x[2,6] 0
x[2,7] 0
x[2,8] 0
x[2,9] 0
x[2,10] 1
x[2,11] 0
x[2,12] 0
x[2,13] 0
x[3,0] 0
x[3,1] 1
x[3,2] 0
x[3,3] 0
x[3,4] 0
x[3,5] 1
x[3,6] 0
x[3,7] 0
x[3,8] 0
x[3,9] 0
x[3,10] 1
x[3,11] 0
x[3,12] 0
x[3,13] 0
x[4,0] 0
x[4,1] 1
x[4,2] 0
x[4,3] 0
x[4,4] 0
x[4,5] 1
x[4,6] 0
x[4,7] 0
x[4,8] 0
x[4,9] 0
x[4,10] 1
x[4,11] 0
x[4,12] 0
x[4,13] 0
x[5,0] 0
x[5,1] 1
x[5,2] 0
x[5,3] 0
x[5,4] 0
x[5,5] 1
x[5,6] 0
x[5,7] 0
x[5,8] 0
x[5,9] 0
x[5,10] 1
x[5,11] 0
x[5,12] 0
x[5,13] 0
c[0,0,0] 0
c[0,0,1] 0
c[0,0,2] 0
c[0,0,3] 0
c[0,0,4] 0
c[0,0,5] 0
c[0,0,6] 0
c[0,0,7] 0
c[0,0,8] 0
c[0,0,9] 0
c[0,0,10] 0
c[0,0,11] 0
c[0,0,12] 0
c[0,0,13] 0
c[0,0,14] 0
c[0,0,15] 0
c[0,0,16] 0
c[0,0,17] 0
c[0,0,18] 0
c[0,0,19] 0
c[0,0,20] 0
c[0,0,21] 0
c[0,0,22] 0
c[0,0,23] 0
c[0,0,24] 1
c[0,1,0] 0
c[0,1,1] 0
c[0,1,2] 0
c[0,1,3] 0
c[0,1,4] 0
c[0,1,5] 0
c[0,1,6] 0
c[0,1,7] 0
c[0,1,8] 0
c[0,1,9] 0
c[0,1,10] 0
c[0,1,11] 0
c[0,1,12] 0
c[0,1,13] 0
c[0,1,14] 0
c[0,1,15] 0
c[0,1,16] 0
c[0,1,17] 0
c[0,1,18] 0
c[0,1,19] 0
c[0,1,20] 0
c[0,1,21] 0
c[0,1,22] 0
c[0,1,23] 0
c[0,1,24] 1
c[0,2,0] 0
c[0,2,1] 0
c[0,2,2] 0
c[0,2,3] 0
c[0,2,4] 0
c[0,2,5] 0
c[0,2,6] 0
c[0,2,7] 0
c[0,2,8] 0
c[0,2,9] 0
c[0,2,10] 0
c[0,2,11] 0
c[0,2,12] 0
c[0,2,13] 0
c[0,2,14] 0
c[0,2,15] 0
c[0,2,16] 0
c[0,2,17] 0
c[0,2,18] 0
c[0,2,19] 0
c[0,2,20] 0
c[0,2,21] 0
c[0,2,22] 1
c[0,2,23] 0
c[0,2,24] 0
c[0,3,0] 0
c[0,3,1] 0
c[0,3,2] 0
c[0,3,3] 0
c[0,3,4] 0
c[0,3,5] 0
c[0,3,6] 0
c[0,3,7] 0
c[0,3,8] 0
c[0,3,9] 0
c[0,3,10] 0
c[0,3,11] 0
c[0,3,12] 0
c[0,3,13] 0
c[0,3,14] 0
c[0,3,15] 0
c[0,3,16] 0
c[0,3,17] 0
c[0,3,18] 0
c[0,3,19] 0
c[0,3,20] 0
c[0,3,21] 0
c[0,3,22] 1
c[0,3,23] 0
c[0,3,24] 0
c[0,4,0] 0
c[0,4,1] 0
c[0,4,2] 0
c[0,4,3] 0
c[0,4,4] 0
c[0,4,5] 0
c[0,4,6] 0
c[0,4,7] 0
c[0,4,8] 0
c[0,4,9] 0
c[0,4,10] 0
c[0,4,11] 0
c[0,4,12] 0
c[0,4,13] 0
c[0,4,14] 0
c[0,4,15] 0
c[0,4,16] 0
c[0,4,17] 0
c[0,4,18] 0
c[0,4,19] 0
c[0,4,20] 0
c[0,4,21] 0
c[0,4,22] 1
c[0,4,23] 0
c[0,4,24] 0
c[0,5,0] 0
c[0,5,1] 0
c[0,5,2] 0
c[0,5,3] 0
c[0,5,4] 0
c[0,5,5] 0
c[0,5,6] 0
c[0,5,7] 0
c[0,5,8] 0
c[0,5,9] 0
c[0,5,10] 0
c[0,5,11] 0
c[0,5,12] 0
c[0,5,13] 0
c[0,5,14] 0
c[0,5,15] 0
c[0,5,16] 0
c[0,5,17] 0
c[0,5,18] 0
c[0,5,19] 0
c[0,5,20] 0
c[0,5,21] 0
c[0,5,22] 1
c[0,5,23] 0
c[0,5,24] 0
c[1,0,0] 0
c[1,0,1] 0
c[1,0,2] 0
c[1,0,3] 0
c[1,0,4] 0
c[1,0,5] 0
c[1,0,6] 0
c[1,0,7] 0
c[1,0,8] 0
c[1,0,9] 0
c[1,0,10] 0
c[1,0,11] 0
c[1,0,12] 0
c[1,0,13] 0
c[1,0,14] 0
c[1,0,15] 0
c[1,0,16] 0
c[1,0,17] 0
c[1,0,18] 0
c[1,0,19] 0
c[1,0,20] 0
c[1,0,21] 0
c[1,0,22] 0
c[1,0,23] 0
c[1,0,24] 1
c[1,1,0] 0
c[1,1,1] 0
c[1,1,2] 0
c[1,1,3] 0
c[1,1,4] 0
c[1,1,5] 0
c[1,1,6] 0
c[1,1,7] 0
c[1,1,8] 0
c[1,1,9] 0
c[1,1,10] 0
c[1,1,11] 0
c[1,1,12] 0
c[1,1,13] 0
c[1,1,14] 0
c[1,1,15] 0
c[1,1,16] 0
c[1,1,17] 0
c[1,1,18] 0
c[1,1,19] 0
c[1,1,20] 0
c[1,1,21] 0
c[1,1,22] 0
c[1,1,23] 0
c[1,1,24] 1
c[1,2,0] 0
c[1,2,1] 0
c[1,2,2] 0
c[1,2,3] 0
c[1,2,4] 0
c[1,2,5] 0
c[1,2,6] 0
c[1,2,7] 0
c[1,2,8] 0
c[1,2,9] 0
c[1,2,10] 0
c[1,2,11] 0
c[1,2,12] 0
c[1,2,13] 0
c[1,2,14] 0
c[1,2,15] 0
c[1,2,16] 0
c[1,2,17] 0
c[1,2,18] 0
c[1,2,19] 0
c[1,2,20] 0
c[1,2,21] 0
c[1,2,22] 1
c[1,2,23] 0
c[1,2,24] 0
c[1,3,0] 0
c[1,3,1] 0
c[1,3,2] 0
c[1,3,3] 0
c[1,3,4] 0
c[1,3,5] 0
c[1,3,6] 0
c[1,3,7] 0
c[1,3,8] 0
c[1,3,9] 0
c[1,3,10] 0
c[1,3,11] 0
c[1,3,12] 0
c[1,3,13] 0
c[1,3,14] 0
c[1,3,15] 0
c[1,3,16] 0
c[1,3,17] 0
c[1,3,18] 0
c[1,3,19] 0
c[1,3,20] 0
c[1,3,21] 0
c[1,3,22] 1
c[1,3,23] 0
c[1,3,24] 0
c[1,4,0] 0
c[1,4,1] 0
c[1,4,2] 0
c[1,4,3] 0
c[1,4,4] 0
c[1,4,5] 0
c[1,4,6] 0
c[1,4,7] 0
c[1,4,8] 0
c[1,4,9] 0
c[1,4,10] 0
c[1,4,11] 0
c[1,4,12] 0
c[1,4,13] 0
c[1,4,14] 0
c[1,4,15] 0
c[1,4,16] 0
c[1,4,17] 0
c[1,4,18] 0
c[1,4,19] 0
c[1,4,20] 0
c[1,4,21] 0
c[1,4,22] 1
c[1,4,23] 0
c[1,4,24] 0
c[1,5,0] 0
c[1,5,1] 0
c[1,5,2] 0
c[1,5,3] 0
c[1,5,4] 0
c[1,5,5] 0
c[1,5,6] 0
c[1,5,7] 0
c[1,5,8] 0
c[1,5,9] 0
c[1,5,10] 0
c[1,5,11] 0
c[1,5,12] 0
c[1,5,13] 0
c[1,5,14] 0
c[1,5,15] 0
c[1,5,16] 0
c[1,5,17] 0
c[1,5,18] 0
c[1,5,19] 0
c[1,5,20] 0
c[1,5,21] 0
c[1,5,22] 1
c[1,5,23] 0
c[1,5,24] 0
c[2,0,0] 0
c[2,0,1] 0
c[2,0,2] 0
c[2,0,3] 0
c[2,0,4] 0
c[2,0,5] 0
c[2,0,6] 0
c[2,0,7] 0
c[2,0,8] 0
c[2,0,9] 0
c[2,0,10] 0
c[2,0,11] 0
c[2,0,12] 0
c[2,0,13] 0
c[2,0,14] 1
c[2,0,15] 0
c[2,0,16] 0
c[2,0,17] 0
c[2,0,18] 0
c[2,0,19] 0
c[2,0,20] 0
c[2,0,21] 0
c[2,0,22] 0
c[2,0,23] 0
c[2,0,24] 0
c[2,1,0] 0
c[2,1,1] 0
c[2,1,2] 0
c[2,1,3] 0
c[2,1,4] 0
c[2,1,5] 0
c[2,1,6] 0
c[2,1,7] 0
c[2,1,8] 0
c[2,1,9] 0
c[2,1,10] 0
c[2,1,11] 0
c[2,1,12] 0
c[2,1,13] 0
c[2,1,14] 1
c[2,1,15] 0
c[2,1,16] 0
c[2,1,17] 0
c[2,1,18] 0
c[2,1,19] 0
c[2,1,20] 0
c[2,1,21] 0
c[2,1,22] 0
c[2,1,23] 0
c[2,1,24] 0
c[2,2,0] 0
c[2,2,1] 0
c[2,2,2] 0
c[2,2,3] 0
c[2,2,4] 0
c[2,2,5] 0
c[2,2,6] 0
c[2,2,7] 0
c[2,2,8] 0
c[2,2,9] 0
c[2,2,10] 0
c[2,2,11] 0
c[2,2,12] 1
c[2,2,13] 0
c[2,2,14] 0
c[2,2,15] 0
c[2,2,16] 0
c[2,2,17] 0
c[2,2,18] 0
c[2,2,19] 0
c[2,2,20] 0
c[2,2,21] 0
c[2,2,22] 0
c[2,2,23] 0
c[2,2,24] 0
c[2,3,0] 0
c[2,3,1] 0
c[2,3,2] 0
c[2,3,3] 0
c[2,3,4] 0
c[2,3,5] 0
c[2,3,6] 0
c[2,3,7] 0
c[2,3,8] 0
c[2,3,9] 0
c[2,3,10] 0
c[2,3,11] 0
c[2,3,12] 1
c[2,3,13] 0
c[2,3,14] 0
c[2,3,15] 0
c[2,3,16] 0
c[2,3,17] 0
c[2,3,18] 0
c[2,3,19] 0
c[2,3,20] 0
c[2,3,21] 0
c[2,3,22] 0
c[2,3,23] 0
c[2,3,24] 0
c[2,4,0] 0
c[2,4,1] 0
c[2,4,2] 0
c[2,4,3] 0
c[2,4,4] 0
c[2,4,5] 0
c[2,4,6] 0
c[2,4,7] 0
c[2,4,8] 0
c[2,4,9] 0
c[2,4,10] 0
c[2,4,11] 0
c[2,4,12] 1
c[2,4,13] 0
c[2,4,14] 0
c[2,4,15] 0
c[2,4,16] 0
c[2,4,17] 0
c[2,4,18] 0
c[2,4,19] 0
c[2,4,20] 0
c[2,4,21] 0
c[2,4,22] 0
c[2,4,23] 0
c[2,4,24] 0
c[2,5,0] 0
c[2,5,1] 0
c[2,5,2] 0
c[2,5,3] 0
c[2,5,4] 0
c[2,5,5] 0
c[2,5,6] 0
c[2,5,7] 0
c[2,5,8] 0
c[2,5,9] 0
c[2,5,10] 0
c[2,5,11] 0
c[2,5,12] 1
c[2,5,13] 0
c[2,5,14] 0
c[2,5,15] 0
c[2,5,16] 0
c[2,5,17] 0
c[2,5,18] 0
c[2,5,19] 0
c[2,5,20] 0
c[2,5,21] 0
c[2,5,22] 0
c[2,5,23] 0
c[2,5,24] 0
c[3,0,0] 0
c[3,0,1] 0
c[3,0,2] 0
c[3,0,3] 0
c[3,0,4] 0
c[3,0,5] 0
c[3,0,6] 0
c[3,0,7] 0
c[3,0,8] 0
c[3,0,9] 0
c[3,0,10] 0
c[3,0,11] 0
c[3,0,12] 0
c[3,0,13] 0
c[3,0,14] 1
c[3,0,15] 0
c[3,0,16] 0
c[3,0,17] 0
c[3,0,18] 0
c[3,0,19] 0
c[3,0,20] 0
c[3,0,21] 0
c[3,0,22] 0
c[3,0,23] 0
c[3,0,24] 0
c[3,1,0] 0
c[3,1,1] 0
c[3,1,2] 0
c[3,1,3] 0
c[3,1,4] 0
c[3,1,5] 0
c[3,1,6] 0
c[3,1,7] 0
c[3,1,8] 0
c[3,1,9] 0
c[3,1,10] 0
c[3,1,11] 0
c[3,1,12] 0
c[3,1,13] 0
c[3,1,14] 1
c[3,1,15] 0
c[3,1,16] 0
c[3,1,17] 0
c[3,1,18] 0
c[3,1,19] 0
c[3,1,20] 0
c[3,1,21] 0
c[3,1,22] 0
c[3,1,23] 0
c[3,1,24] 0
c[3,2,0] 0
c[3,2,1] 0
c[3,2,2] 0
c[3,2,3] 0
c[3,2,4] 0
c[3,2,5] 0
c[3,2,6] 0
c[3,2,7] 0
c[3,2,8] 0
c[3,2,9] 0
c[3,2,10] 0
c[3,2,11] 0
c[3,2,12] 1
c[3,2,13] 0
c[3,2,14] 0
c[3,2,15] 0
c[3,2,16] 0
c[3,2,17] 0
c[3,2,18] 0
c[3,2,19] 0
c[3,2,20] 0
c[3,2,21] 0
c[3,2,22] 0
c[3,2,23] 0
c[3,2,24] 0
c[3,3,0] 0
c[3,3,1] 0
c[3,3,2] 0
c[3,3,3] 0
c[3,3,4] 0
c[3,3,5] 0
c[3,3,6] 0
c[3,3,7] 0
c[3,3,8] 0
c[3,3,9] 0
c[3,3,10] 0
c[3,3,11] 0
c[3,3,12] 1
c[3,3,13] 0
c[3,3,14] 0
c[3,3,15] 0
c[3,3,16] 0
c[3,3,17] 0
c[3,3,18] 0
c[3,3,19] 0
c[3,3,20] 0
c[3,3,21] 0
c[3,3,22] 0
c[3,3,23] 0
c[3,3,24] 0
c[3,4,0] 0
c[3,4,1] 0
c[3,4,2] 0
c[3,4,3] 0
c[3,4,4] 0
c[3,4,5] 0
c[3,4,6] 0
c[3,4,7] 0
c[3,4,8] 0
c[3,4,9] 0
c[3,4,10] 0
c[3,4,11] 0
c[3,4,12] 1
c[3,4,13] 0
c[3,4,14] 0
c[3,4,15] 0
c[3,4,16] 0
c[3,4,17] 0
c[3,4,18] 0
c[3,4,19] 0
c[3,4,20] 0
c[3,4,21] 0
c[3,4,22] 0
c[3,4,23] 0
c[3,4,24] 0
c[3,5,0] 0
c[3,5,1] 0
c[3,5,2] 0
c[3,5,3] 0
c[3,5,4] 0
c[3,5,5] 0
c[3,5,6] 0
c[3,5,7] 0
c[3,5,8] 0
c[3,5,9] 0
c[3,5,10] 0
c[3,5,11] 0
c[3,5,12] 1
c[3,5,13] 0
c[3,5,14] 0
c[3,5,15] 0
c[3,5,16] 0
c[3,5,17] 0
c[3,5,18] 0
c[3,5,19] 0
c[3,5,20] 0
c[3,5,21] 0
c[3,5,22] 0
c[3,5,23] 0
c[3,5,24] 0
c[4,0,0] 0
c[4,0,1] 0
c[4,0,2] 0
c[4,0,3] 0
c[4,0,4] 0
c[4,0,5] 0
c[4,0,6] 0
c[4,0,7] 0
c[4,0,8] 0
c[4,0,9] 0
c[4,0,10] 0
c[4,0,11] 0
c[4,0,12] 0
c[4,0,13] 0
c[4,0,14] 1
c[4,0,15] 0
c[4,0,16] 0
c[4,0,17] 0
c[4,0,18] 0
c[4,0,19] 0
c[4,0,20] 0
c[4,0,21] 0
c[4,0,22] 0
c[4,0,23] 0
c[4,0,24] 0
c[4,1,0] 0
c[4,1,1] 0
c[4,1,2] 0
c[4,1,3] 0
c[4,1,4] 0
c[4,1,5] 0
c[4,1,6] 0
c[4,1,7] 0
c[4,1,8] 0
c[4,1,9] 0
c[4,1,10] 0
c[4,1,11] 0
c[4,1,12] 0
c[4,1,13] 0
c[4,1,14] 1
c[4,1,15] 0
c[4,1,16] 0
c[4,1,17] 0
c[4,1,18] 0
c[4,1,19] 0
c[4,1,20] 0
c[4,1,21] 0
c[4,1,22] 0
c[4,1,23] 0
c[4,1,24] 0
c[4,2,0] 0
c[4,2,1] 0
c[4,2,2] 0
c[4,2,3] 0
c[4,2,4] 0
c[4,2,5] 0
c[4,2,6] 0
c[4,2,7] 0
c[4,2,8] 0
c[4,2,9] 0
c[4,2,10] 0
c[4,2,11] 0
c[4,2,12] 1
c[4,2,13] 0
c[4,2,14] 0
c[4,2,15] 0
c[4,2,16] 0
c[4,2,17] 0
c[4,2,18] 0
c[4,2,19] 0
c[4,2,20] 0
c[4,2,21] 0
c[4,2,22] 0
c[4,2,23] 0
c[4,2,24] 0
c[4,3,0] 0
c[4,3,1] 0
c[4,3,2] 0
c[4,3,3] 0
c[4,3,4] 0
c[4,3,5] 0
c[4,3,6] 0
c[4,3,7] 0
c[4,3,8] 0
c[4,3,9] 0
c[4,3,10] 0
c[4,3,11] 0
c[4,3,12] 1
c[4,3,13] 0
c[4,3,14] 0
c[4,3,15] 0
c[4,3,16] 0
c[4,3,17] 0
c[4,3,18] 0
c[4,3,19] 0
c[4,3,20] 0
c[4,3,21] 0
c[4,3,22] 0
c[4,3,23] 0
c[4,3,24] 0
c[4,4,0] 0
c[4,4,1] 0
c[4,4,2] 0
c[4,4,3] 0
c[4,4,4] 0
c[4,4,5] 0
c[4,4,6] 0
c[4,4,7] 0
c[4,4,8] 0
c[4,4,9] 0
c[4,4,10] 0
c[4,4,11] 0
c[4,4,12] 1
c[4,4,13] 0
c[4,4,14] 0
c[4,4,15] 0
c[4,4,16] 0
c[4,4,17] 0
c[4,4,18] 0
c[4,4,19] 0
c[4,4,20] 0
c[4,4,21] 0
c[4,4,22] 0
c[4,4,23] 0
c[4,4,24] 0
c[4,5,0] 0
c[4,5,1] 0
c[4,5,2] 0
c[4,5,3] 0
c[4,5,4] 0
c[4,5,5] 0
c[4,5,6] 0
c[4,5,7] 0
c[4,5,8] 0
c[4,5,9] 0
c[4,5,10] 0
c[4,5,11] 0
c[4,5,12] 1
c[4,5,13] 0
c[4,5,14] 0
c[4,5,15] 0
c[4,5,16] 0
c[4,5,17] 0
c[4,5,18] 0
c[4,5,19] 0
c[4,5,20] 0
c[4,5,21] 0
c[4,5,22] 0
c[4,5,23] 0
c[4,5,24] 0
c[5,0,0] 0
c[5,0,1] 0
c[5,0,2] 0
c[5,0,3] 0
c[5,0,4] 0
c[5,0,5] 0
c[5,0,6] 0
c[5,0,7] 0
c[5,0,8] 0
c[5,0,9] 0
c[5,0,10] 0
c[5,0,11] 0
c[5,0,12] 0
c[5,0,13] 0
c[5,0,14] 1
c[5,0,15] 0
c[5,0,16] 0
c[5,0,17] 0
c[5,0,18] 0
c[5,0,19] 0
c[5,0,20] 0
c[5,0,21] 0
c[5,0,22] 0
c[5,0,23] 0
c[5,0,24] 0
c[5,1,0] 0
c[5,1,1] 0
c[5,1,2] 0
c[5,1,3] 0
c[5,1,4] 0
c[5,1,5] 0
c[5,1,6] 0
c[5,1,7] 0
c[5,1,8] 0
c[5,1,9] 0
c[5,1,10] 0
c[5,1,11] 0
c[5,1,12] 0
c[5,1,13] 0
c[5,1,14] 1
c[5,1,15] 0
c[5,1,16] 0
c[5,1,17] 0
c[5,1,18] 0
c[5,1,19] 0
c[5,1,20] 0
c[5,1,21] 0
c[5,1,22] 0
c[5,1,23] 0
c[5,1,24] 0
c[5,2,0] 0
c[5,2,1] 0
c[5,2,2] 0
c[5,2,3] 0
c[5,2,4] 0
c[5,2,5] 0
c[5,2,6] 0
c[5,2,7] 0
c[5,2,8] 0
c[5,2,9] 0
c[5,2,10] 0
c[5,2,11] 0
c[5,2,12] 1
c[5,2,13] 0
c[5,2,14] 0
c[5,2,15] 0
c[5,2,16] 0
c[5,2,17] 0
c[5,2,18] 0
c[5,2,19] 0
c[5,2,20] 0
c[5,2,21] 0
c[5,2,22] 0
c[5,2,23] 0
c[5,2,24] 0
c[5,3,0] 0
c[5,3,1] 0
c[5,3,2] 0
c[5,3,3] 0
c[5,3,4] 0
c[5,3,5] 0
c[5,3,6] 0
c[5,3,7] 0
c[5,3,8] 0
c[5,3,9] 0
c[5,3,10] 0
c[5,3,11] 0
c[5,3,12] 1
c[5,3,13] 0
c[5,3,14] 0
c[5,3,15] 0
c[5,3,16] 0
c[5,3,17] 0
c[5,3,18] 0
c[5,3,19] 0
c[5,3,20] 0
c[5,3,21] 0
c[5,3,22] 0
c[5,3,23] 0
c[5,3,24] 0
c[5,4,0] 0
c[5,4,1] 0
c[5,4,2] 0
c[5,4,3] 0
c[5,4,4] 0
c[5,4,5] 0
c[5,4,6] 0
c[5,4,7] 0
c[5,4,8] 0
c[5,4,9] 0
c[5,4,10] 0
c[5,4,11] 0
c[5,4,12] 1
c[5,4,13] 0
c[5,4,14] 0
c[5,4,15] 0
c[5,4,16] 0
c[5,4,17] 0
c[5,4,18] 0
c[5,4,19] 0
c[5,4,20] 0
c[5,4,21] 0
c[5,4,22] 0
c[5,4,23] 0
c[5,4,24] 0
c[5,5,0] 0
c[5,5,1] 0
c[5,5,2] 0
c[5,5,3] 0
c[5,5,4] 0
c[5,5,5] 0
c[5,5,6] 0
c[5,5,7] 0
c[5,5,8] 0
c[5,5,9] 0
c[5,5,10] 0
c[5,5,11] 0
c[5,5,12] 1
c[5,5,13] 0
c[5,5,14] 0
c[5,5,15] 0
c[5,5,16] 0
c[5,5,17] 0
c[5,5,18] 0
c[5,5,19] 0
c[5,5,20] 0
c[5,5,21] 0
c[5,5,22] 0
c[5,5,23] 0
c[5,5,24] 0
b[0,0,0] 0
b[0,0,1] 0
b[0,0,2] 0
b[0,0,3] 0
b[0,0,4] 0
b[0,0,5] 0
b[0,0,6] 0
b[0,0,7] 0
b[0,0,8] 0
b[0,0,9] 0
b[0,0,10] 0
b[0,0,11] 0
b[0,0,12] 0
b[0,0,13] 0
b[0,1,0] 0
b[0,1,1] 0
b[0,1,2] 0
b[0,1,3] 0
b[0,1,4] 0
b[0,1,5] 0
b[0,1,6] 0
b[0,1,7] 0
b[0,1,8] 0
b[0,1,9] 0
b[0,1,10] 0
b[0,1,11] 0
b[0,1,12] 0
b[0,1,13] 0
b[0,2,0] 0
b[0,2,1] 0
b[0,2,2] 0
b[0,2,3] 0
b[0,2,4] 0
b[0,2,5] 0
b[0,2,6] 0
b[0,2,7] 0
b[0,2,8] 0
b[0,2,9] 0
b[0,2,10] 0
b[0,2,11] 0
b[0,2,12] 0
b[0,2,13] 0
b[0,3,0] 0
b[0,3,1] 0
b[0,3,2] 0
b[0,3,3] 0
b[0,3,4] 0
b[0,3,5] 0
b[0,3,6] 0
b[0,3,7] 0
b[0,3,8] 0
b[0,3,9] 0
b[0,3,10] 0
b[0,3,11] 0
b[0,3,12] 0
b[0,3,13] 0
b[0,4,0] 0
b[0,4,1] 0
b[0,4,2] 0
b[0,4,3] 0
b[0,4,4] 0
b[0,4,5] 0
b[0,4,6] 0
b[0,4,7] 0
b[0,4,8] 0
b[0,4,9] 0
b[0,4,10] 0
b[0,4,11] 0
b[0,4,12] 0
b[0,4,13] 0
b[0,5,0] 0
b[0,5,1] 0
b[0,5,2] 0
b[0,5,3] 0
b[0,5,4] 0
b[0,5,5] 0
b[0,5,6] 0
b[0,5,7] 0
b[0,5,8] 0
b[0,5,9] 0
b[0,5,10] 0
b[0,5,11] 0
b[0,5,12] 0
b[0,5,13] 0
b[1,0,0] 0
b[1,0,1] 0
b[1,0,2] 0
b[1,0,3] 0
b[1,0,4] 0
b[1,0,5] 0
b[1,0,6] 0
b[1,0,7] 0
b[1,0,8] 0
b[1,0,9] 0
b[1,0,10] 0
b[1,0,11] 0
b[1,0,12] 0
b[1,0,13] 0
b[1,1,0] 0
b[1,1,1] 0
b[1,1,2] 0
b[1,1,3] 0
b[1,1,4] 0
b[1,1,5] 0
b[1,1,6] 0
b[1,1,7] 0
b[1,1,8] 0
b[1,1,9] 0
b[1,1,10] 0
b[1,1,11] 0
b[1,1,12] 0
b[1,1,13] 0
b[1,2,0] 0
b[1,2,1] 0
b[1,2,2] 0
b[1,2,3] 0
b[1,2,4] 0
b[1,2,5] 0
b[1,2,6] 0
b[1,2,7] 0
b[1,2,8] 0
b[1,2,9] 0
b[1,2,10] 0
b[1,2,11] 0
b[1,2,12] 0
b[1,2,13] 0
b[1,3,0] 0
b[1,3,1] 0
b[1,3,2] 0
b[1,3,3] 0
b[1,3,4] 0
b[1,3,5] 0
b[1,3,6] 0
b[1,3,7] 0
b[1,3,8] 0
b[1,3,9] 0
b[1,3,10] 0
b[1,3,11] 0
b[1,3,12] 0
b[1,3,13] 0
b[1,4,0] 0
b[1,4,1] 0
b[1,4,2] 0
b[1,4,3] 0
b[1,4,4] 0
b[1,4,5] 0
b[1,4,6] 0
b[1,4,7] 0
b[1,4,8] 0
b[1,4,9] 0
b[1,4,10] 0
b[1,4,11] 0
b[1,4,12] 0
b[1,4,13] 0
b[1,5,0] 0
b[1,5,1] 0
b[1,5,2] 0
b[1,5,3] 0
b[1,5,4] 0
b[1,5,5] 0
b[1,5,6] 0
b[1,5,7] 0
b[1,5,8] 0
b[1,5,9] 0
b[1,5,10] 0
b[1,5,11] 0
b[1,5,12] 0
b[1,5,13] 0
b[2,0,0] 0
b[2,0,1] 0
b[2,0,2] 0
b[2,0,3] 0
b[2,0,4] 0
b[2,0,5] 0
b[2,0,6] 0
b[2,0,7] 0
b[2,0,8] 0
b[2,0,9] 0
b[2,0,10] 0
b[2,0,11] 0
b[2,0,12] 0
b[2,0,13] 0
b[2,1,0] 0
b[2,1,1] 0
b[2,1,2] 0
b[2,1,3] 0
b[2,1,4] 0
b[2,1,5] 0
b[2,1,6] 0
b[2,1,7] 0
b[2,1,8] 0
b[2,1,9] 0
b[2,1,10] 0
b[2,1,11] 0
b[2,1,12] 0
b[2,1,13] 0
b[2,2,0] 0
b[2,2,1] 0
b[2,2,2] 0
b[2,2,3] 0
b[2,2,4] 0
b[2,2,5] 0
b[2,2,6] 0
b[2,2,7] 0
b[2,2,8] 0
b[2,2,9] 0
b[2,2,10] 0
b[2,2,11] 0
b[2,2,12] 0
b[2,2,13] 0
b[2,3,0] 0
b[2,3,1] 0
b[2,3,2] 0
b[2,3,3] 0
b[2,3,4] 0
b[2,3,5] 0
b[2,3,6] 0
b[2,3,7] 0
b[2,3,8] 0
b[2,3,9] 0
b[2,3,10] 0
b[2,3,11] 0
b[2,3,12] 0
b[2,3,13] 0
b[2,4,0] 0
b[2,4,1] 0
b[2,4,2] 0
b[2,4,3] 0
b[2,4,4] 0
b[2,4,5] 0
b[2,4,6] 0
b[2,4,7] 0
b[2,4,8] 0
b[2,4,9] 0
b[2,4,10] 0
b[2,4,11] 0
b[2,4,12] 0
b[2,4,13] 0
b[2,5,0] 0
b[2,5,1] 0
b[2,5,2] 0
b[2,5,3] 0
b[2,5,4] 0
b[2,5,5] 0
b[2,5,6] 0
b[2,5,7] 0
b[2,5,8] 0
b[2,5,9] 0
b[2,5,10] 0
b[2,5,11] 0
b[2,5,12] 0
b[2,5,13] 0
b[3,0,0] 0
b[3,0,1] 0
b[3,0,2] 0
b[3,0,3] 0
b[3,0,4] 0
b[3,0,5] 0
b[3,0,6] 0
b[3,0,7] 0
b[3,0,8] 0
b[3,0,9] 0
b[3,0,10] 0
b[3,0,11] 0
b[3,0,12] 0
b[3,0,13] 0
b[3,1,0] 0
b[3,1,1] 0
b[3,1,2] 0
b[3,1,3] 0
b[3,1,4] 0
b[3,1,5] 0
b[3,1,6] 0
b[3,1,7] 0
b[3,1,8] 0
b[3,1,9] 0
b[3,1,10] 0
b[3,1,11] 0
b[3,1,12] 0
b[3,1,13] 0
b[3,2,0] 0
b[3,2,1] 0
b[3,2,2] 0
b[3,2,3] 0
b[3,2,4] 0
b[3,2,5] 0
b[3,2,6] 0
b[3,2,7] 0
b[3,2,8] 0
b[3,2,9] 0
b[3,2,10] 0
b[3,2,11] 0
b[3,2,12] 0
b[3,2,13] 0
b[3,3,0] 0
b[3,3,1] 0
b[3,3,2] 0
b[3,3,3] 0
b[3,3,4] 0
b[3,3,5] 0
b[3,3,6] 0
b[3,3,7] 0
b[3,3,8] 0
b[3,3,9] 0
b[3,3,10] 0
b[3,3,11] 0
b[3,3,12] 0
b[3,3,13] 0
b[3,4,0] 0
b[3,4,1] 0
b[3,4,2] 0
b[3,4,3] 0
b[3,4,4] 0
b[3,4,5] 0
b[3,4,6] 0
b[3,4,7] 0
b[3,4,8] 0
b[3,4,9] 0
b[3,4,10] 0
b[3,4,11] 0
b[3,4,12] 0
b[3,4,13] 0
b[3,5,0] 0
b[3,5,1] 0
b[3,5,2] 0
b[3,5,3] 0
b[3,5,4] 0
b[3,5,5] 0
b[3,5,6] 0
b[3,5,7] 0
b[3,5,8] 0
b[3,5,9] 0
b[3,5,10] 0
b[3,5,11] 0
b[3,5,12] 0
b[3,5,13] 0
b[4,0,0] 0
b[4,0,1] 0
b[4,0,2] 0
b[4,0,3] 0
b[4,0,4] 0
b[4,0,5] 0
b[4,0,6] 0
b[4,0,7] 0
b[4,0,8] 0
b[4,0,9] 0
b[4,0,10] 0
b[4,0,11] 0
b[4,0,12] 0
b[4,0,13] 0
b[4,1,0] 0
b[4,1,1] 0
b[4,1,2] 0
b[4,1,3] 0
b[4,1,4] 0
b[4,1,5] 0
b[4,1,6] 0
b[4,1,7] 0
b[4,1,8] 0
b[4,1,9] 0
b[4,1,10] 0
b[4,1,11] 0
b[4,1,12] 0
b[4,1,13] 0
b[4,2,0] 0
b[4,2,1] 0
b[4,2,2] 0
b[4,2,3] 0
b[4,2,4] 0
b[4,2,5] 0
b[4,2,6] 0
b[4,2,7] 0
b[4,2,8] 0
b[4,2,9] 0
b[4,2,10] 0
b[4,2,11] 0
b[4,2,12] 0
b[4,2,13] 0
b[4,3,0] 0
b[4,3,1] 0
b[4,3,2] 0
b[4,3,3] 0
b[4,3,4] 0
b[4,3,5] 0
b[4,3,6] 0
b[4,3,7] 0
b[4,3,8] 0
b[4,3,9] 0
b[4,3,10] 0
b[4,3,11] 0
b[4,3,12] 0
b[4,3,13] 0
b[4,4,0] 0
b[4,4,1] 0
b[4,4,2] 0
b[4,4,3] 0
b[4,4,4] 0
b[4,4,5] 0
b[4,4,6] 0
b[4,4,7] 0
b[4,4,8] 0
b[4,4,9] 0
b[4,4,10] 0
b[4,4,11] 0
b[4,4,12] 0
b[4,4,13] 0
b[4,5,0] 0
b[4,5,1] 0
b[4,5,2] 0
b[4,5,3] 0
b[4,5,4] 0
b[4,5,5] 0
b[4,5,6] 0
b[4,5,7] 0
b[4,5,8] 0
b[4,5,9] 0
b[4,5,10] 0
b[4,5,11] 0
b[4,5,12] 0
b[4,5,13] 0
b[5,0,0] 0
b[5,0,1] 0
b[5,0,2] 0
b[5,0,3] 0
b[5,0,4] 0
b[5,0,5] 0
b[5,0,6] 0
b[5,0,7] 0
b[5,0,8] 0
b[5,0,9] 0
b[5,0,10] 0
b[5,0,11] 0
b[5,0,12] 0
b[5,0,13] 0
b[5,1,0] 0
b[5,1,1] 0
b[5,1,2] 0
b[5,1,3] 0
b[5,1,4] 0
b[5,1,5] 0
b[5,1,6] 0
b[5,1,7] 0
b[5,1,8] 0
b[5,1,9] 0
b[5,1,10] 0
b[5,1,11] 0
b[5,1,12] 0
b[5,1,13] 0
b[5,2,0] 0
b[5,2,1] 0
b[5,2,2] 0
b[5,2,3] 0
b[5,2,4] 0
b[5,2,5] 0
b[5,2,6] 0
b[5,2,7] 0
b[5,2,8] 0
b[5,2,9] 0
b[5,2,10] 0
b[5,2,11] 0
b[5,2,12] 0
b[5,2,13] 0
b[5,3,0] 0
b[5,3,1] 0
b[5,3,2] 0
b[5,3,3] 0
b[5,3,4] 0
b[5,3,5] 0
b[5,3,6] 0
b[5,3,7] 0
b[5,3,8] 0
b[5,3,9] 0
b[5,3,10] 0
b[5,3,11] 0
b[5,3,12] 0
b[5,3,13] 0
b[5,4,0] 0
b[5,4,1] 0
b[5,4,2] 0
b[5,4,3] 0
b[5,4,4] 0
b[5,4,5] 0
b[5,4,6] 0
b[5,4,7] 0
b[5,4,8] 0
b[5,4,9] 0
b[5,4,10] 0
b[5,4,11] 0
b[5,4,12] 0
b[5,4,13] 0
b[5,5,0] 0
b[5,5,1] 0
b[5,5,2] 0
b[5,5,3] 0
b[5,5,4] 0
b[5,5,5] 0
b[5,5,6] 0
b[5,5,7] 0
b[5,5,8] 0
b[5,5,9] 0
b[5,5,10] 0
b[5,5,11] 0
b[5,5,12] 0
b[5,5,13] 0
sp[0,0] 0.25
sp[0,1] 0.25
sp[0,2] 3.5355339059327373e-01
sp[0,3] 3.5355339059327373e-01
sp[0,4] 3.5355339059327373e-01
sp[0,5] 3.5355339059327373e-01
sp[1,0] 0.25
sp[1,1] 0.25
sp[1,2] 3.5355339059327373e-01
sp[1,3] 3.5355339059327373e-01
sp[1,4] 3.5355339059327373e-01
sp[1,5] 3.5355339059327373e-01
sp[2,0] 3.5355339059327373e-01
sp[2,1] 3.5355339059327373e-01
sp[2,2] 4.9999999999999989e-01
sp[2,3] 4.9999999999999989e-01
sp[2,4] 4.9999999999999989e-01
sp[2,5] 4.9999999999999989e-01
sp[3,0] 3.5355339059327373e-01
sp[3,1] 3.5355339059327373e-01
sp[3,2] 4.9999999999999989e-01
sp[3,3] 4.9999999999999989e-01
sp[3,4] 4.9999999999999989e-01
sp[3,5] 4.9999999999999989e-01
sp[4,0] 3.5355339059327373e-01
sp[4,1] 3.5355339059327373e-01
sp[4,2] 4.9999999999999989e-01
sp[4,3] 4.9999999999999989e-01
sp[4,4] 4.9999999999999989e-01
sp[4,5] 4.9999999999999989e-01
sp[5,0] 3.5355339059327373e-01
sp[5,1] 3.5355339059327373e-01
sp[5,2] 4.9999999999999989e-01
sp[5,3] 4.9999999999999989e-01
sp[5,4] 4.9999999999999989e-01
sp[5,5] 4.9999999999999989e-01
d_plus[0] 4
d_plus[1] 4
d_plus[2] 2
d_plus[3] 2
d_plus[4] 2
d_plus[5] 2
p[0,0] 24
p[0,1] 24
p[0,2] 22
p[0,3] 22
p[0,4] 22
p[0,5] 22
p[1,0] 24
p[1,1] 24
p[1,2] 22
p[1,3] 22
p[1,4] 22
p[1,5] 22
p[2,0] 14
p[2,1] 14
p[2,2] 12
p[2,3] 12
p[2,4] 12
p[2,5] 12
p[3,0] 14
p[3,1] 14
p[3,2] 12
p[3,3] 12
p[3,4] 12
p[3,5] 12
p[4,0] 14
p[4,1] 14
p[4,2] 12
p[4,3] 12
p[4,4] 12
p[4,5] 12
p[5,0] 14
p[5,1] 14
p[5,2] 12
p[5,3] 12
p[5,4] 12
p[5,5] 12
t[0,0] 0.25
t[0,1] 0.25
t[0,2] 0
t[0,3] 3.5355339059327373e-01
t[0,4] 0
t[0,5] 3.5355339059327373e-01
t[1,0] 0.25
t[1,1] 0.25
t[1,2] 3.5355339059327373e-01
t[1,3] 0
t[1,4] 3.5355339059327373e-01
t[1,5] 0
t[2,0] 0
t[2,1] 3.5355339059327373e-01
t[2,2] 4.9999999999999989e-01
t[2,3] 0
t[2,4] 0
t[2,5] 0
t[3,0] 3.5355339059327373e-01
t[3,1] 0
t[3,2] 0
t[3,3] 4.9999999999999989e-01
t[3,4] 0
t[3,5] 0
t[4,0] 0
t[4,1] 3.5355339059327373e-01
t[4,2] 0
t[4,3] 0
t[4,4] 4.9999999999999989e-01
t[4,5] 0
t[5,0] 3.5355339059327373e-01
t[5,1] 0
t[5,2] 0
t[5,3] 0
t[5,4] 0
t[5,5] 4.9999999999999989e-01
h_prime[0,0] 0
h_prime[0,1] 0
h_prime[0,2] 5.5020523382458519e-01
h_prime[0,3] 0
h_prime[0,4] 2.7331059693036569e-01
h_prime[0,5] 0
h_prime[0,6] 0
h_prime[0,7] 0.506699325600479
h_prime[0,8] 0
h_prime[0,9] 7.1473217050177118e-01
h_prime[0,10] 5.6347090499693286e-01
h_prime[0,11] 0
h_prime[0,12] 2.9306550262268149e-02
h_prime[0,13] 2.6258742088610770e-01
h_prime[0,14] 3.6725767733305864e-01
h_prime[0,15] 0
h_prime[0,16] 0
h_prime[0,17] 2.6450071630986205e-01
h_prime[0,18] 5.2623405030281545e-01
h_prime[0,19] 0
h_prime[0,20] 7.5155105723351379e-01
h_prime[0,21] 0
h_prime[0,22] 0
h_prime[0,23] 5.6320831118895553e-01
h_prime[0,24] 8.8866742257250025e-02
h_prime[0,25] 0
h_prime[0,26] 6.1118923557832028e-01
h_prime[0,27] 0
h_prime[0,28] 0
h_prime[0,29] 3.2261574286792344e-01
h_prime[0,30] 0.0677551895265641
h_prime[0,31] 0
h_prime[1,0] 0
h_prime[1,1] 0
h_prime[1,2] 5.5020523382458519e-01
h_prime[1,3] 0
h_prime[1,4] 2.7331059693036569e-01
h_prime[1,5] 0
h_prime[1,6] 0
h_prime[1,7] 0.506699325600479
h_prime[1,8] 0
h_prime[1,9] 7.1473217050177118e-01
h_prime[1,10] 5.6347090499693286e-01
h_prime[1,11] 0
h_prime[1,12] 2.9306550262268149e-02
h_prime[1,13] 2.6258742088610770e-01
h_prime[1,14] 3.6725767733305864e-01
h_prime[1,15] 0
h_prime[1,16] 0
h_prime[1,17] 2.6450071630986205e-01
h_prime[1,18] 5.2623405030281545e-01
h_prime[1,19] 0
h_prime[1,20] 7.5155105723351379e-01
h_prime[1,21] 0
h_prime[1,22] 0
h_prime[1,23] 5.6320831118895553e-01
h_prime[1,24] 8.8866742257250025e-02
h_prime[1,25] 0
h_prime[1,26] 6.1118923557832028e-01
h_prime[1,27] 0
h_prime[1,28] 0
h_prime[1,29] 3.2261574286792344e-01
h_prime[1,30] 0.0677551895265641
h_prime[1,31] 0
h_prime[2,0] 0
h_prime[2,1] 0
h_prime[2,2] 3.8905385188172348e-01
h_prime[2,3] 0
h_prime[2,4] 1.9325977645963410e-01
h_prime[2,5] 0
h_prime[2,6] 0
h_prime[2,7] 3.5829052915477844e-01
h_prime[2,8] 0
h_prime[2,9] 5.0539196449401136e-01
h_prime[2,10] 3.9843409792468137e-01
h_prime[2,11] 0
h_prime[2,12] 2.0722860423663555e-02
h_prime[2,13] 1.8567734596288218e-01
h_prime[2,14] 2.5969039408505612e-01
h_prime[2,15] 0
h_prime[2,16] 0
h_prime[2,17] 1.8703025013143207e-01
h_prime[2,18] 3.7210366546041290e-01
h_prime[2,19] 0
h_prime[2,20] 5.3142684897776593e-01
h_prime[2,21] 0
h_prime[2,22] 0
h_prime[2,23] 0.398248416062363
h_prime[2,24] 6.2838276072087945e-02
h_prime[2,25] 0
h_prime[2,26] 4.3217605306568180e-01
h_prime[2,27] 0
h_prime[2,28] 0
h_prime[2,29] 2.2812377949947354e-01
h_prime[2,30] 4.7910153974842572e-02
h_prime[2,31] 0
h_prime[3,0] 0
h_prime[3,1] 0
h_prime[3,2] 3.8905385188172348e-01
h_prime[3,3] 0
h_prime[3,4] 1.9325977645963410e-01
h_prime[3,5] 0
h_prime[3,6] 0
h_prime[3,7] 3.5829052915477844e-01
h_prime[3,8] 0
h_prime[3,9] 5.0539196449401136e-01
h_prime[3,10] 3.9843409792468137e-01
h_prime[3,11] 0
h_prime[3,12] 2.0722860423663555e-02
h_prime[3,13] 1.8567734596288218e-01
h_prime[3,14] 2.5969039408505612e-01
h_prime[3,15] 0
h_prime[3,16] 0
h_prime[3,17] 1.8703025013143207e-01
h_prime[3,18] 3.7210366546041290e-01
h_prime[3,19] 0
h_prime[3,20] 5.3142684897776593e-01
h_prime[3,21] 0
h_prime[3,22] 0
h_prime[3,23] 0.398248416062363
h_prime[3,24] 6.2838276072087945e-02
h_prime[3,25] 0
h_prime[3,26] 4.3217605306568180e-01
h_prime[3,27] 0
h_prime[3,28] 0
h_prime[3,29] 2.2812377949947354e-01
h_prime[3,30] 4.7910153974842572e-02
h_prime[3,31] 0
h_prime[4,0] 0
h_prime[4,1] 0
h_prime[4,2] 3.8905385188172348e-01
h_prime[4,3] 0
h_prime[4,4] 1.9325977645963410e-01
h_prime[4,5] 0
h_prime[4,6] 0
h_prime[4,7] 3.5829052915477844e-01
h_prime[4,8] 0
h_prime[4,9] 5.0539196449401136e-01
h_prime[4,10] 3.9843409792468137e-01
h_prime[4,11] 0
h_prime[4,12] 2.0722860423663555e-02
h_prime[4,13] 1.8567734596288218e-01
h_prime[4,14] 2.5969039408505612e-01
h_prime[4,15] 0
h_prime[4,16] 0
h_prime[4,17] 1.8703025013143207e-01
h_prime[4,18] 3.7210366546041290e-01
h_prime[4,19] 0
h_prime[4,20] 5.3142684897776593e-01
h_prime[4,21] 0
h_prime[4,22] 0
h_prime[4,23] 0.398248416062363
h_prime[4,24] 6.2838276072087945e-02
h_prime[4,25] 0
h_prime[4,26] 4.3217605306568180e-01
h_prime[4,27] 0
h_prime[4,28] 0
h_prime[4,29] 2.2812377949947354e-01
h_prime[4,30] 4.7910153974842572e-02
h_prime[4,31] 0
h_prime[5,0] 0
h_prime[5,1] 0
h_prime[5,2] 3.8905385188172348e-01
h_prime[5,3] 0
h_prime[5,4] 1.9325977645963410e-01
h_prime[5,5] 0
h_prime[5,6] 0
h_prime[5,7] 3.5829052915477844e-01
h_prime[5,8] 0
h_prime[5,9] 5.0539196449401136e-01
h_prime[5,10] 3.9843409792468137e-01
h_prime[5,11] 0
h_prime[5,12] 2.0722860423663555e-02
h_prime[5,13] 1.8567734596288218e-01
h_prime[5,14] 2.5969039408505612e-01
h_prime[5,15] 0
h_prime[5,16] 0
h_prime[5,17] 1.8703025013143207e-01
h_prime[5,18] 3.7210366546041290e-01
h_prime[5,19] 0
h_prime[5,20] 5.3142684897776593e-01
h_prime[5,21] 0
h_prime[5,22] 0
h_prime[5,23] 0.398248416062363
h_prime[5,24] 6.2838276072087945e-02
h_prime[5,25] 0
h_prime[5,26] 4.3217605306568180e-01
h_prime[5,27] 0
h_prime[5,28] 0
h_prime[5,29] 2.2812377949947354e-01
h_prime[5,30] 4.7910153974842572e-02
h_prime[5,31] 0
s_0_0_GCN 4.6419709091344380e-01
z_0_0_GCN 0
s_0_1_GCN 1.0755548382431522e-01
z_0_1_GCN 0
s_0_2_GCN 0
z_0_2_GCN 1
s_0_3_GCN 3.6799424236295591e-01
z_0_3_GCN 0
s_0_4_GCN 0
z_0_4_GCN 1
s_0_5_GCN 0.463715340940929
z_0_5_GCN 0
s_0_6_GCN 1.8916767519287836e-01
z_0_6_GCN 0
s_0_7_GCN 0
z_0_7_GCN 1
s_0_8_GCN 5.6040118641198247e-02
z_0_8_GCN 0
s_0_9_GCN 0
z_0_9_GCN 1
s_0_10_GCN 0
z_0_10_GCN 1
s_0_11_GCN 2.4586897004696892e-01
z_0_11_GCN 0
s_0_12_GCN 0
z_0_12_GCN 1
s_0_13_GCN 0
z_0_13_GCN 1
s_0_14_GCN 0
z_0_14_GCN 1
s_0_15_GCN 2.2293736616098164e-01
z_0_15_GCN 0
s_0_16_GCN 4.8266692366873981e-01
z_0_16_GCN 0
s_0_17_GCN 0
z_0_17_GCN 1
s_0_18_GCN 0
z_0_18_GCN 1
s_0_19_GCN 1.6276447804829421e-02
z_0_19_GCN 0
s_0_20_GCN 0
z_0_20_GCN 1
s_0_21_GCN 2.0751922946592252e-01
z_0_21_GCN 0
s_0_22_GCN 1.0914661776784147e-01
z_0_22_GCN 0
s_0_23_GCN 0
z_0_23_GCN 1
s_0_24_GCN 0
z_0_24_GCN 1
s_0_25_GCN 3.2291216383138810e-01
z_0_25_GCN 0
s_0_26_GCN 0
z_0_26_GCN 1
s_0_27_GCN 3.7771770262625659e-01
z_0_27_GCN 0
s_0_28_GCN 2.9506151967041143e-02
z_0_28_GCN 0
s_0_29_GCN 0
z_0_29_GCN 1
s_0_30_GCN 0
z_0_30_GCN 1
s_0_31_GCN 2.1472014328301679e-02
z_0_31_GCN 0
s_1_0_GCN 4.6419709091344380e-01
z_1_0_GCN 0
s_1_1_GCN 1.0755548382431522e-01
z_1_1_GCN 0
s_1_2_GCN 0
z_1_2_GCN 1
s_1_3_GCN 3.6799424236295591e-01
z_1_3_GCN 0
s_1_4_GCN 0
z_1_4_GCN 1
s_1_5_GCN 0.463715340940929
z_1_5_GCN 0
s_1_6_GCN 1.8916767519287836e-01
z_1_6_GCN 0
s_1_7_GCN 0
z_1_7_GCN 1
s_1_8_GCN 5.6040118641198247e-02
z_1_8_GCN 0
s_1_9_GCN 0
z_1_9_GCN 1
s_1_10_GCN 0
z_1_10_GCN 1
s_1_11_GCN 2.4586897004696892e-01
z_1_11_GCN 0
s_1_12_GCN 0
z_1_12_GCN 1
s_1_13_GCN 0
z_1_13_GCN 1
s_1_14_GCN 0
z_1_14_GCN 1
s_1_15_GCN 2.2293736616098164e-01
z_1_15_GCN 0
s_1_16_GCN 4.8266692366873981e-01
z_1_16_GCN 0
s_1_17_GCN 0
z_1_17_GCN 1
s_1_18_GCN 0
z_1_18_GCN 1
s_1_19_GCN 1.6276447804829421e-02
z_1_19_GCN 0
s_1_20_GCN 0
z_1_20_GCN 1
s_1_21_GCN 2.0751922946592252e-01
z_1_21_GCN 0
s_1_22_GCN 1.0914661776784147e-01
z_1_22_GCN 0
s_1_23_GCN 0
z_1_23_GCN 1
s_1_24_GCN 0
z_1_24_GCN 1
s_1_25_GCN 3.2291216383138810e-01
z_1_25_GCN 0
s_1_26_GCN 0
z_1_26_GCN 1
s_1_27_GCN 3.7771770262625659e-01
z_1_27_GCN 0
s_1_28_GCN 2.9506151967041143e-02
z_1_28_GCN 0
s_1_29_GCN 0
z_1_29_GCN 1
s_1_30_GCN 0
z_1_30_GCN 1
s_1_31_GCN 2.1472014328301679e-02
z_1_31_GCN 0
s_2_0_GCN 3.2823691079199374e-01
z_2_0_GCN 0
s_2_1_GCN 7.6053211966002662e-02
z_2_1_GCN 0
s_2_2_GCN 0
z_2_2_GCN 1
s_2_3_GCN 2.6021122421248127e-01
z_2_3_GCN 0
s_2_4_GCN 0
z_2_4_GCN 1
s_2_5_GCN 3.2789626211959205e-01
z_2_5_GCN 0
s_2_6_GCN 1.3376174591020787e-01
z_2_6_GCN 0
s_2_7_GCN 0
z_2_7_GCN 1
s_2_8_GCN 3.9626347909719278e-02
z_2_8_GCN 0
s_2_9_GCN 0
z_2_9_GCN 1
s_2_10_GCN 0
z_2_10_GCN 1
s_2_11_GCN 1.7385561600359320e-01
z_2_11_GCN 0
s_2_12_GCN 0
z_2_12_GCN 1
s_2_13_GCN 0
z_2_13_GCN 1
s_2_14_GCN 0
z_2_14_GCN 1
s_2_15_GCN 1.5764052339232781e-01
z_2_15_GCN 0
s_2_16_GCN 0.341297054780645
z_2_16_GCN 0
s_2_17_GCN 0
z_2_17_GCN 1
s_2_18_GCN 0
z_2_18_GCN 1
s_2_19_GCN 1.1509186616453133e-02
z_2_19_GCN 0
s_2_20_GCN 0
z_2_20_GCN 1
s_2_21_GCN 1.4673825438199037e-01
z_2_21_GCN 0
s_2_22_GCN 7.7178313567246165e-02
z_2_22_GCN 0
s_2_23_GCN 0
z_2_23_GCN 1
s_2_24_GCN 0
z_2_24_GCN 1
s_2_25_GCN 2.2833338077282525e-01
z_2_25_GCN 0
s_2_26_GCN 0
z_2_26_GCN 1
s_2_27_GCN 2.6708674890125916e-01
z_2_27_GCN 0
s_2_28_GCN 2.0864000142644928e-02
z_2_28_GCN 0
s_2_29_GCN 0
z_2_29_GCN 1
s_2_30_GCN 0
z_2_30_GCN 1
s_2_31_GCN 1.5183006937306186e-02
z_2_31_GCN 0
s_3_0_GCN 3.2823691079199374e-01
z_3_0_GCN 0
s_3_1_GCN 7.6053211966002662e-02
z_3_1_GCN 0
s_3_2_GCN 0
z_3_2_GCN 1
s_3_3_GCN 2.6021122421248127e-01
z_3_3_GCN 0
s_3_4_GCN 0
z_3_4_GCN 1
s_3_5_GCN 3.2789626211959205e-01
z_3_5_GCN 0
s_3_6_GCN 1.3376174591020787e-01
z_3_6_GCN 0
s_3_7_GCN 0
z_3_7_GCN 1
s_3_8_GCN 3.9626347909719278e-02
z_3_8_GCN 0
s_3_9_GCN 0
z_3_9_GCN 1
s_3_10_GCN 0
z_3_10_GCN 1
s_3_11_GCN 1.7385561600359320e-01
z_3_11_GCN 0
s_3_12_GCN 0
z_3_12_GCN 1
s_3_13_GCN 0
z_3_13_GCN 1
s_3_14_GCN 0
z_3_14_GCN 1
s_3_15_GCN 1.5764052339232781e-01
z_3_15_GCN 0
s_3_16_GCN 0.341297054780645
z_3_16_GCN 0
s_3_17_GCN 0
z_3_17_GCN 1
s_3_18_GCN 0
z_3_18_GCN 1
s_3_19_GCN 1.1509186616453133e-02
z_3_19_GCN 0
s_3_20_GCN 0
z_3_20_GCN 1
s_3_21_GCN 1.4673825438199037e-01
z_3_21_GCN 0
s_3_22_GCN 7.7178313567246165e-02
z_3_22_GCN 0
s_3_23_GCN 0
z_3_23_GCN 1
s_3_24_GCN 0
z_3_24_GCN 1
s_3_25_GCN 2.2833338077282525e-01
z_3_25_GCN 0
s_3_26_GCN 0
z_3_26_GCN 1
s_3_27_GCN 2.6708674890125916e-01
z_3_27_GCN 0
s_3_28_GCN 2.0864000142644928e-02
z_3_28_GCN 0
s_3_29_GCN 0
z_3_29_GCN 1
s_3_30_GCN 0
z_3_30_GCN 1
s_3_31_GCN 1.5183006937306186e-02
z_3_31_GCN 0
s_4_0_GCN 3.2823691079199374e-01
z_4_0_GCN 0
s_4_1_GCN 7.6053211966002662e-02
z_4_1_GCN 0
s_4_2_GCN 0
z_4_2_GCN 1
s_4_3_GCN 2.6021122421248127e-01
z_4_3_GCN 0
s_4_4_GCN 0
z_4_4_GCN 1
s_4_5_GCN 3.2789626211959205e-01
z_4_5_GCN 0
s_4_6_GCN 1.3376174591020787e-01
z_4_6_GCN 0
s_4_7_GCN 0
z_4_7_GCN 1
s_4_8_GCN 3.9626347909719278e-02
z_4_8_GCN 0
s_4_9_GCN 0
z_4_9_GCN 1
s_4_10_GCN 0
z_4_10_GCN 1
s_4_11_GCN 1.7385561600359320e-01
z_4_11_GCN 0
s_4_12_GCN 0
z_4_12_GCN 1
s_4_13_GCN 0
z_4_13_GCN 1
s_4_14_GCN 0
z_4_14_GCN 1
s_4_15_GCN 1.5764052339232781e-01
z_4_15_GCN 0
s_4_16_GCN 0.341297054780645
z_4_16_GCN 0
s_4_17_GCN 0
z_4_17_GCN 1
s_4_18_GCN 0
z_4_18_GCN 1
s_4_19_GCN 1.1509186616453133e-02
z_4_19_GCN 0
s_4_20_GCN 0
z_4_20_GCN 1
s_4_21_GCN 1.4673825438199037e-01
z_4_21_GCN 0
s_4_22_GCN 7.7178313567246165e-02
z_4_22_GCN 0
s_4_23_GCN 0
z_4_23_GCN 1
s_4_24_GCN 0
z_4_24_GCN 1
s_4_25_GCN 2.2833338077282525e-01
z_4_25_GCN 0
s_4_26_GCN 0
z_4_26_GCN 1
s_4_27_GCN 2.6708674890125916e-01
z_4_27_GCN 0
s_4_28_GCN 2.0864000142644928e-02
z_4_28_GCN 0
s_4_29_GCN 0
z_4_29_GCN 1
s_4_30_GCN 0
z_4_30_GCN 1
s_4_31_GCN 1.5183006937306186e-02
z_4_31_GCN 0
s_5_0_GCN 3.2823691079199374e-01
z_5_0_GCN 0
s_5_1_GCN 7.6053211966002662e-02
z_5_1_GCN 0
s_5_2_GCN 0
z_5_2_GCN 1
s_5_3_GCN 2.6021122421248127e-01
z_5_3_GCN 0
s_5_4_GCN 0
z_5_4_GCN 1
s_5_5_GCN 3.2789626211959205e-01
z_5_5_GCN 0
s_5_6_GCN 1.3376174591020787e-01
z_5_6_GCN 0
s_5_7_GCN 0
z_5_7_GCN 1
s_5_8_GCN 3.9626347909719278e-02
z_5_8_GCN 0
s_5_9_GCN 0
z_5_9_GCN 1
s_5_10_GCN 0
z_5_10_GCN 1
s_5_11_GCN 1.7385561600359320e-01
z_5_11_GCN 0
s_5_12_GCN 0
z_5_12_GCN 1
s_5_13_GCN 0
z_5_13_GCN 1
s_5_14_GCN 0
z_5_14_GCN 1
s_5_15_GCN 1.5764052339232781e-01
z_5_15_GCN 0
s_5_16_GCN 0.341297054780645
z_5_16_GCN 0
s_5_17_GCN 0
z_5_17_GCN 1
s_5_18_GCN 0
z_5_18_GCN 1
s_5_19_GCN 1.1509186616453133e-02
z_5_19_GCN 0
s_5_20_GCN 0
z_5_20_GCN 1
s_5_21_GCN 1.4673825438199037e-01
z_5_21_GCN 0
s_5_22_GCN 7.7178313567246165e-02
z_5_22_GCN 0
s_5_23_GCN 0
z_5_23_GCN 1
s_5_24_GCN 0
z_5_24_GCN 1
s_5_25_GCN 2.2833338077282525e-01
z_5_25_GCN 0
s_5_26_GCN 0
z_5_26_GCN 1
s_5_27_GCN 2.6708674890125916e-01
z_5_27_GCN 0
s_5_28_GCN 2.0864000142644928e-02
z_5_28_GCN 0
s_5_29_GCN 0
z_5_29_GCN 1
s_5_30_GCN 0
z_5_30_GCN 1
s_5_31_GCN 1.5183006937306186e-02
z_5_31_GCN 0
h[0] 0
h[1] 0
h[2] 2.6566258751758678e+00
h[3] 0
h[4] 1.3196602996988691e+00
h[5] 0
h[6] 0
h[7] 2.4465607678198715e+00
h[8] 0
h[9] 3.4510321989793873e+00
h[10] 2.7206782016922029e+00
h[11] 0
h[12] 1.4150454221899356e-01
h[13] 1.2678842256235452e+00
h[14] 1.77327693100613
h[15] 0
h[16] 0
h[17] 1.2771224331452515e+00
h[18] 2.5408827624468806e+00
h[19] 0
h[20] 3.6288095103775930e+00
h[21] 0
h[22] 0
h[23] 2.7194102866271592e+00
h[24] 4.2908658880244843e-01
h[25] 0
h[26] 2.9510826834191741e+00
h[27] 0
h[28] 0
h[29] 1.5577266037335438e+00
h[30] 3.2715099495230060e-01
h[31] 0
y 3.2671813740173423e+00
x_1_0_ANN 2.7066595796719812e+00
s_1_0_ANN 0
z_1_0_ANN 1
x_1_1_ANN 0
s_1_1_ANN 1.3453007925089153e+00
z_1_1_ANN 0
x_1_2_ANN 3.9432099304039731e-01
s_1_2_ANN 0
z_1_2_ANN 1
x_1_3_ANN 0
s_1_3_ANN 1.8278898706359075e+00
z_1_3_ANN 0
x_1_4_ANN 0
s_1_4_ANN 2.6369256160062311e+00
z_1_4_ANN 0
x_1_5_ANN 0
s_1_5_ANN 2.0125062996920988e+00
z_1_5_ANN 0
x_1_6_ANN 0
s_1_6_ANN 2.0422309894356419e+00
z_1_6_ANN 0
x_1_7_ANN 3.7693303016673552e+00
s_1_7_ANN 0
z_1_7_ANN 1
x_1_8_ANN 1.9550595822279060e-01
s_1_8_ANN 0
z_1_8_ANN 1
x_1_9_ANN 2.9105922197374126e+00
s_1_9_ANN 0
z_1_9_ANN 1
x_1_10_ANN 3.2541732363701361e+00
s_1_10_ANN 0
z_1_10_ANN 1
x_1_11_ANN 0
s_1_11_ANN 2.3062635688815192e-01
z_1_11_ANN 0
x_1_12_ANN 0
s_1_12_ANN 1.5575551064928397e+00
z_1_12_ANN 0
x_1_13_ANN 2.8956195113034164e+00
s_1_13_ANN 0
z_1_13_ANN 1
x_1_14_ANN 0
s_1_14_ANN 7.3994019214260121e-01
z_1_14_ANN 0
x_1_15_ANN 0
s_1_15_ANN 2.2163387257112954e+00
z_1_15_ANN 0
